; --proof-with-sharing --index-fresh-sorts --proof-define-skolems --proof-prune --proof-merge --disable-print-success --disable-banner --max-time=30
(set-option :produce-proofs true)
(set-logic AUFLIA)
(declare-sort A_d 0)
(declare-fun x_d () A_d)
(declare-fun y_d () A_d)
(declare-fun eqv_d (A_d A_d) Bool)
(assert (! (not false) :named a0))
(assert (! (not (eqv_d x_d y_d)) :named a1))
(assert (! (eqv_d x_d y_d) :named a2))
(check-sat)
;;;;;;(get-proof)
